(declare-fun var0 () String)
(assert (str.in.re var0 (re.++ (re.union (re.union (str.to.re "88") (str.to.re "99")) (re.+ (str.to.re "a"))) (re.++ (re.* (re.+ (str.to.re "777"))) (re.++ (re.* (re.* (str.to.re "66"))) (re.++ (re.+ (re.* (str.to.re "55"))) (re.++ (re.+ (re.union (str.to.re "3") (str.to.re "44"))) (re.++ (re.+ (re.+ (str.to.re "222"))) (re.++ (re.+ (re.+ (str.to.re "11"))) (re.++ (re.union (re.+ (str.to.re "~~")) (re.* (str.to.re "000"))) (re.++ (re.+ (re.* (str.to.re "}"))) (re.++ (re.* (re.+ (str.to.re "|"))) (re.++ (re.* (re.union (str.to.re "```") (str.to.re "{{{"))) (re.++ (re.+ (re.union (str.to.re "^^^") (str.to.re "_"))) (re.++ (re.union (re.union (str.to.re "[") (str.to.re "\\")) (re.+ (str.to.re "]"))) (re.++ (re.+ (re.union (str.to.re "??") (str.to.re "@@"))) (re.++ (re.* (re.union (str.to.re "===") (str.to.re ">>>"))) (re.++ (re.union (re.union (str.to.re ":") (str.to.re ";;;")) (re.* (str.to.re "<<"))) (re.++ (re.+ (re.* (str.to.re "///"))) (re.++ (re.+ (re.+ (str.to.re "."))) (re.++ (re.* (re.+ (str.to.re "--"))) (re.++ (re.+ (re.union (str.to.re "+++") (str.to.re ",,"))) (re.++ (re.+ (re.* (str.to.re "**"))) (re.++ (re.union (re.union (str.to.re "'") (str.to.re "(((")) (re.* (str.to.re ")))"))) (re.++ (re.union (re.* (str.to.re "%%%")) (re.+ (str.to.re "&"))) (re.++ (re.* (re.+ (str.to.re "$$$"))) (re.++ (re.* (re.* (str.to.re "###"))) (re.++ (re.* (re.* (str.to.re """"""""))) (re.++ (re.union (re.+ (str.to.re "YY")) (re.union (str.to.re "Z") (str.to.re "!!!"))) (re.++ (re.union (re.union (str.to.re "VV") (str.to.re "WWW")) (re.+ (str.to.re "XX"))) (re.++ (re.union (re.* (str.to.re "TT")) (re.+ (str.to.re "U"))) (re.++ (re.* (re.* (str.to.re "SS"))) (re.++ (re.union (re.union (str.to.re "P") (str.to.re "Q")) (re.+ (str.to.re "RRR"))) (re.++ (re.+ (re.* (str.to.re "OO"))) (re.++ (re.union (re.* (str.to.re "M")) (re.+ (str.to.re "NN"))) (re.++ (re.+ (re.* (str.to.re "LLL"))) (re.++ (re.union (re.* (str.to.re "JJ")) (re.* (str.to.re "K"))) (re.++ (re.* (re.union (str.to.re "HHH") (str.to.re "III"))) (re.++ (re.union (re.+ (str.to.re "F")) (re.+ (str.to.re "GG"))) (re.++ (re.+ (re.union (str.to.re "D") (str.to.re "EE"))) (re.++ (re.+ (re.union (str.to.re "B") (str.to.re "CC"))) (re.++ (re.union (re.union (str.to.re "yy") (str.to.re "z")) (re.* (str.to.re "A"))) (re.++ (re.* (re.* (str.to.re "x"))) (re.++ (re.union (re.+ (str.to.re "v")) (re.* (str.to.re "w"))) (re.++ (re.+ (re.union (str.to.re "ttt") (str.to.re "uuu"))) (re.++ (re.union (re.+ (str.to.re "qqq")) (re.union (str.to.re "r") (str.to.re "s"))) (re.++ (re.union (re.union (str.to.re "nn") (str.to.re "o")) (re.+ (str.to.re "pp"))) (re.++ (re.union (re.+ (str.to.re "lll")) (re.+ (str.to.re "m"))) (re.++ (re.union (re.union (str.to.re "hh") (str.to.re "ii")) (re.union (str.to.re "jj") (str.to.re "kkk"))) (re.++ (re.* (re.union (str.to.re "f") (str.to.re "g"))) (re.++ (re.+ (re.union (str.to.re "dd") (str.to.re "ee"))) (re.++ (re.union (re.union (str.to.re "99") (str.to.re "a")) (re.union (str.to.re "bb") (str.to.re "ccc"))) (re.++ (re.* (re.* (str.to.re "88"))) (re.++ (re.+ (re.union (str.to.re "666") (str.to.re "77"))) (re.++ (re.* (re.+ (str.to.re "5"))) (re.++ (re.+ (re.* (str.to.re "4"))) (re.++ (re.union (re.union (str.to.re "111") (str.to.re "222")) (re.* (str.to.re "33"))) (re.* (re.* (str.to.re "00"))))))))))))))))))))))))))))))))))))))))))))))))))))))))))))
(assert (not (str.in.re var0 (re.++ (re.* (re.+ (str.to.re "}}"))) (re.++ (re.* (re.union (str.to.re "{{{") (str.to.re "||"))) (re.++ (re.+ (re.+ (str.to.re "``"))) (re.++ (re.+ (re.* (str.to.re "_"))) (re.++ (re.* (re.* (str.to.re "^^"))) (re.++ (re.* (re.+ (str.to.re "]]]"))) (re.++ (re.union (re.* (str.to.re "@@@")) (re.union (str.to.re "[") (str.to.re "\\\\"))) (re.++ (re.union (re.* (str.to.re ">>")) (re.+ (str.to.re "??"))) (re.++ (re.+ (re.+ (str.to.re "=="))) (re.++ (re.union (re.+ (str.to.re ";")) (re.+ (str.to.re "<"))) (re.++ (re.* (re.+ (str.to.re ":::"))) (re.++ (re.* (re.+ (str.to.re "//"))) (re.++ (re.union (re.* (str.to.re "-")) (re.+ (str.to.re ".."))) (re.++ (re.+ (re.* (str.to.re ","))) (re.++ (re.union (re.+ (str.to.re ")))")) (re.union (str.to.re "***") (str.to.re "+"))) (re.++ (re.union (re.* (str.to.re "'")) (re.+ (str.to.re "(("))) (re.++ (re.* (re.* (str.to.re "&&"))) (re.++ (re.union (re.* (str.to.re "###")) (re.union (str.to.re "$$") (str.to.re "%"))) (re.++ (re.union (re.* (str.to.re "ZZ")) (re.union (str.to.re "!") (str.to.re """"))) (re.++ (re.union (re.+ (str.to.re "XXX")) (re.* (str.to.re "YYY"))) (re.++ (re.* (re.* (str.to.re "WW"))) (re.++ (re.+ (re.+ (str.to.re "VV"))) (re.++ (re.union (re.* (str.to.re "S")) (re.union (str.to.re "T") (str.to.re "UUU"))) (re.++ (re.* (re.union (str.to.re "QQ") (str.to.re "RR"))) (re.++ (re.* (re.* (str.to.re "P"))) (re.++ (re.+ (re.union (str.to.re "N") (str.to.re "OO"))) (re.++ (re.+ (re.* (str.to.re "MM"))) (re.++ (re.* (re.* (str.to.re "LLL"))) (re.++ (re.* (re.* (str.to.re "KKK"))) (re.++ (re.* (re.+ (str.to.re "JJ"))) (re.++ (re.* (re.* (str.to.re "I"))) (re.++ (re.* (re.+ (str.to.re "HH"))) (re.++ (re.* (re.+ (str.to.re "GG"))) (re.++ (re.* (re.union (str.to.re "E") (str.to.re "FF"))) (re.++ (re.+ (re.union (str.to.re "CCC") (str.to.re "DD"))) (re.++ (re.union (re.* (str.to.re "AAA")) (re.+ (str.to.re "B"))) (re.++ (re.union (re.union (str.to.re "ww") (str.to.re "xxx")) (re.union (str.to.re "y") (str.to.re "z"))) (re.++ (re.+ (re.union (str.to.re "u") (str.to.re "v"))) (re.++ (re.* (re.union (str.to.re "s") (str.to.re "tt"))) (re.++ (re.* (re.* (str.to.re "rr"))) (re.++ (re.* (re.* (str.to.re "q"))) (re.++ (re.union (re.union (str.to.re "n") (str.to.re "oo")) (re.+ (str.to.re "pp"))) (re.++ (re.* (re.+ (str.to.re "m"))) (re.++ (re.+ (re.+ (str.to.re "lll"))) (re.++ (re.* (re.+ (str.to.re "kk"))) (re.++ (re.+ (re.* (str.to.re "j"))) (re.++ (re.* (re.union (str.to.re "h") (str.to.re "iii"))) (re.++ (re.* (re.* (str.to.re "ggg"))) (re.++ (re.+ (re.union (str.to.re "eee") (str.to.re "f"))) (re.++ (re.+ (re.union (str.to.re "c") (str.to.re "dd"))) (re.++ (re.union (re.union (str.to.re "9") (str.to.re "aaa")) (re.* (str.to.re "bbb"))) (re.++ (re.* (re.union (str.to.re "77") (str.to.re "88"))) (re.++ (re.* (re.union (str.to.re "55") (str.to.re "6"))) (re.++ (re.union (re.* (str.to.re "333")) (re.+ (str.to.re "44"))) (re.++ (re.* (re.union (str.to.re "1") (str.to.re "22"))) (re.* (re.* (str.to.re "00")))))))))))))))))))))))))))))))))))))))))))))))))))))))))))))
(check-sat)